c
c Generated WCNF file
c
p wcnf 352 1678 57420
57420 27 0
57420 -28 1 0
57420 -28 2 0
57420 28 -1 -2 0
57420 -29 1 0
57420 -29 3 0
57420 29 -1 -3 0
57420 -30 1 0
57420 -30 4 0
57420 30 -1 -4 0
57420 -31 1 0
57420 -31 5 0
57420 31 -1 -5 0
57420 -32 1 0
57420 -32 6 0
57420 32 -1 -6 0
57420 -33 1 0
57420 -33 7 0
57420 33 -1 -7 0
57420 -34 1 0
57420 -34 8 0
57420 34 -1 -8 0
57420 -35 1 0
57420 -35 9 0
57420 35 -1 -9 0
57420 -36 1 0
57420 -36 10 0
57420 36 -1 -10 0
57420 -37 1 0
57420 -37 11 0
57420 37 -1 -11 0
57420 -38 1 0
57420 -38 12 0
57420 38 -1 -12 0
57420 -39 1 0
57420 -39 13 0
57420 39 -1 -13 0
57420 -40 1 0
57420 -40 14 0
57420 40 -1 -14 0
57420 -41 1 0
57420 -41 15 0
57420 41 -1 -15 0
57420 -42 1 0
57420 -42 16 0
57420 42 -1 -16 0
57420 -43 1 0
57420 -43 17 0
57420 43 -1 -17 0
57420 -44 1 0
57420 -44 18 0
57420 44 -1 -18 0
57420 -45 1 0
57420 -45 19 0
57420 45 -1 -19 0
57420 -46 1 0
57420 -46 20 0
57420 46 -1 -20 0
57420 -47 1 0
57420 -47 21 0
57420 47 -1 -21 0
57420 -48 1 0
57420 -48 22 0
57420 48 -1 -22 0
57420 -49 1 0
57420 -49 23 0
57420 49 -1 -23 0
57420 -50 1 0
57420 -50 24 0
57420 50 -1 -24 0
57420 -51 1 0
57420 -51 25 0
57420 51 -1 -25 0
57420 -52 1 0
57420 -52 26 0
57420 52 -1 -26 0
57420 -53 2 0
57420 -53 3 0
57420 53 -2 -3 0
57420 -54 2 0
57420 -54 4 0
57420 54 -2 -4 0
57420 -55 2 0
57420 -55 5 0
57420 55 -2 -5 0
57420 -56 2 0
57420 -56 6 0
57420 56 -2 -6 0
57420 -57 2 0
57420 -57 7 0
57420 57 -2 -7 0
57420 -58 2 0
57420 -58 8 0
57420 58 -2 -8 0
57420 -59 2 0
57420 -59 9 0
57420 59 -2 -9 0
57420 -60 2 0
57420 -60 10 0
57420 60 -2 -10 0
57420 -61 2 0
57420 -61 11 0
57420 61 -2 -11 0
57420 -62 2 0
57420 -62 12 0
57420 62 -2 -12 0
57420 -63 2 0
57420 -63 13 0
57420 63 -2 -13 0
57420 -64 2 0
57420 -64 14 0
57420 64 -2 -14 0
57420 -65 2 0
57420 -65 15 0
57420 65 -2 -15 0
57420 -66 2 0
57420 -66 16 0
57420 66 -2 -16 0
57420 -67 2 0
57420 -67 17 0
57420 67 -2 -17 0
57420 -68 2 0
57420 -68 18 0
57420 68 -2 -18 0
57420 -69 2 0
57420 -69 19 0
57420 69 -2 -19 0
57420 -70 2 0
57420 -70 20 0
57420 70 -2 -20 0
57420 -71 2 0
57420 -71 21 0
57420 71 -2 -21 0
57420 -72 2 0
57420 -72 22 0
57420 72 -2 -22 0
57420 -73 2 0
57420 -73 23 0
57420 73 -2 -23 0
57420 -74 2 0
57420 -74 24 0
57420 74 -2 -24 0
57420 -75 2 0
57420 -75 25 0
57420 75 -2 -25 0
57420 -76 2 0
57420 -76 26 0
57420 76 -2 -26 0
57420 -77 3 0
57420 -77 4 0
57420 77 -3 -4 0
57420 -78 3 0
57420 -78 5 0
57420 78 -3 -5 0
57420 -79 3 0
57420 -79 6 0
57420 79 -3 -6 0
57420 -80 3 0
57420 -80 7 0
57420 80 -3 -7 0
57420 -81 3 0
57420 -81 8 0
57420 81 -3 -8 0
57420 -82 3 0
57420 -82 9 0
57420 82 -3 -9 0
57420 -83 3 0
57420 -83 10 0
57420 83 -3 -10 0
57420 -84 3 0
57420 -84 11 0
57420 84 -3 -11 0
57420 -85 3 0
57420 -85 12 0
57420 85 -3 -12 0
57420 -86 3 0
57420 -86 13 0
57420 86 -3 -13 0
57420 -87 3 0
57420 -87 14 0
57420 87 -3 -14 0
57420 -88 3 0
57420 -88 15 0
57420 88 -3 -15 0
57420 -89 3 0
57420 -89 16 0
57420 89 -3 -16 0
57420 -90 3 0
57420 -90 17 0
57420 90 -3 -17 0
57420 -91 3 0
57420 -91 18 0
57420 91 -3 -18 0
57420 -92 3 0
57420 -92 19 0
57420 92 -3 -19 0
57420 -93 3 0
57420 -93 20 0
57420 93 -3 -20 0
57420 -94 3 0
57420 -94 21 0
57420 94 -3 -21 0
57420 -95 3 0
57420 -95 22 0
57420 95 -3 -22 0
57420 -96 3 0
57420 -96 23 0
57420 96 -3 -23 0
57420 -97 3 0
57420 -97 24 0
57420 97 -3 -24 0
57420 -98 3 0
57420 -98 25 0
57420 98 -3 -25 0
57420 -99 3 0
57420 -99 26 0
57420 99 -3 -26 0
57420 -100 4 0
57420 -100 5 0
57420 100 -4 -5 0
57420 -101 4 0
57420 -101 6 0
57420 101 -4 -6 0
57420 -102 4 0
57420 -102 7 0
57420 102 -4 -7 0
57420 -103 4 0
57420 -103 8 0
57420 103 -4 -8 0
57420 -104 4 0
57420 -104 9 0
57420 104 -4 -9 0
57420 -105 4 0
57420 -105 10 0
57420 105 -4 -10 0
57420 -106 4 0
57420 -106 11 0
57420 106 -4 -11 0
57420 -107 4 0
57420 -107 12 0
57420 107 -4 -12 0
57420 -108 4 0
57420 -108 13 0
57420 108 -4 -13 0
57420 -109 4 0
57420 -109 14 0
57420 109 -4 -14 0
57420 -110 4 0
57420 -110 15 0
57420 110 -4 -15 0
57420 -111 4 0
57420 -111 16 0
57420 111 -4 -16 0
57420 -112 4 0
57420 -112 17 0
57420 112 -4 -17 0
57420 -113 4 0
57420 -113 18 0
57420 113 -4 -18 0
57420 -114 4 0
57420 -114 19 0
57420 114 -4 -19 0
57420 -115 4 0
57420 -115 20 0
57420 115 -4 -20 0
57420 -116 4 0
57420 -116 21 0
57420 116 -4 -21 0
57420 -117 4 0
57420 -117 22 0
57420 117 -4 -22 0
57420 -118 4 0
57420 -118 23 0
57420 118 -4 -23 0
57420 -119 4 0
57420 -119 24 0
57420 119 -4 -24 0
57420 -120 4 0
57420 -120 25 0
57420 120 -4 -25 0
57420 -121 4 0
57420 -121 26 0
57420 121 -4 -26 0
57420 -122 5 0
57420 -122 6 0
57420 122 -5 -6 0
57420 -123 5 0
57420 -123 7 0
57420 123 -5 -7 0
57420 -124 5 0
57420 -124 8 0
57420 124 -5 -8 0
57420 -125 5 0
57420 -125 9 0
57420 125 -5 -9 0
57420 -126 5 0
57420 -126 10 0
57420 126 -5 -10 0
57420 -127 5 0
57420 -127 11 0
57420 127 -5 -11 0
57420 -128 5 0
57420 -128 12 0
57420 128 -5 -12 0
57420 -129 5 0
57420 -129 13 0
57420 129 -5 -13 0
57420 -130 5 0
57420 -130 14 0
57420 130 -5 -14 0
57420 -131 5 0
57420 -131 15 0
57420 131 -5 -15 0
57420 -132 5 0
57420 -132 16 0
57420 132 -5 -16 0
57420 -133 5 0
57420 -133 17 0
57420 133 -5 -17 0
57420 -134 5 0
57420 -134 18 0
57420 134 -5 -18 0
57420 -135 5 0
57420 -135 19 0
57420 135 -5 -19 0
57420 -136 5 0
57420 -136 20 0
57420 136 -5 -20 0
57420 -137 5 0
57420 -137 21 0
57420 137 -5 -21 0
57420 -138 5 0
57420 -138 22 0
57420 138 -5 -22 0
57420 -139 5 0
57420 -139 23 0
57420 139 -5 -23 0
57420 -140 5 0
57420 -140 24 0
57420 140 -5 -24 0
57420 -141 5 0
57420 -141 25 0
57420 141 -5 -25 0
57420 -142 5 0
57420 -142 26 0
57420 142 -5 -26 0
57420 -143 6 0
57420 -143 7 0
57420 143 -6 -7 0
57420 -144 6 0
57420 -144 8 0
57420 144 -6 -8 0
57420 -145 6 0
57420 -145 9 0
57420 145 -6 -9 0
57420 -146 6 0
57420 -146 10 0
57420 146 -6 -10 0
57420 -147 6 0
57420 -147 11 0
57420 147 -6 -11 0
57420 -148 6 0
57420 -148 12 0
57420 148 -6 -12 0
57420 -149 6 0
57420 -149 13 0
57420 149 -6 -13 0
57420 -150 6 0
57420 -150 14 0
57420 150 -6 -14 0
57420 -151 6 0
57420 -151 15 0
57420 151 -6 -15 0
57420 -152 6 0
57420 -152 16 0
57420 152 -6 -16 0
57420 -153 6 0
57420 -153 17 0
57420 153 -6 -17 0
57420 -154 6 0
57420 -154 18 0
57420 154 -6 -18 0
57420 -155 6 0
57420 -155 19 0
57420 155 -6 -19 0
57420 -156 6 0
57420 -156 20 0
57420 156 -6 -20 0
57420 -157 6 0
57420 -157 21 0
57420 157 -6 -21 0
57420 -158 6 0
57420 -158 22 0
57420 158 -6 -22 0
57420 -159 6 0
57420 -159 23 0
57420 159 -6 -23 0
57420 -160 6 0
57420 -160 24 0
57420 160 -6 -24 0
57420 -161 6 0
57420 -161 25 0
57420 161 -6 -25 0
57420 -162 6 0
57420 -162 26 0
57420 162 -6 -26 0
57420 -163 7 0
57420 -163 8 0
57420 163 -7 -8 0
57420 -164 7 0
57420 -164 9 0
57420 164 -7 -9 0
57420 -165 7 0
57420 -165 10 0
57420 165 -7 -10 0
57420 -166 7 0
57420 -166 11 0
57420 166 -7 -11 0
57420 -167 7 0
57420 -167 12 0
57420 167 -7 -12 0
57420 -168 7 0
57420 -168 13 0
57420 168 -7 -13 0
57420 -169 7 0
57420 -169 14 0
57420 169 -7 -14 0
57420 -170 7 0
57420 -170 15 0
57420 170 -7 -15 0
57420 -171 7 0
57420 -171 16 0
57420 171 -7 -16 0
57420 -172 7 0
57420 -172 17 0
57420 172 -7 -17 0
57420 -173 7 0
57420 -173 18 0
57420 173 -7 -18 0
57420 -174 7 0
57420 -174 19 0
57420 174 -7 -19 0
57420 -175 7 0
57420 -175 20 0
57420 175 -7 -20 0
57420 -176 7 0
57420 -176 21 0
57420 176 -7 -21 0
57420 -177 7 0
57420 -177 22 0
57420 177 -7 -22 0
57420 -178 7 0
57420 -178 23 0
57420 178 -7 -23 0
57420 -179 7 0
57420 -179 24 0
57420 179 -7 -24 0
57420 -180 7 0
57420 -180 25 0
57420 180 -7 -25 0
57420 -181 7 0
57420 -181 26 0
57420 181 -7 -26 0
57420 -182 8 0
57420 -182 9 0
57420 182 -8 -9 0
57420 -183 8 0
57420 -183 10 0
57420 183 -8 -10 0
57420 -184 8 0
57420 -184 11 0
57420 184 -8 -11 0
57420 -185 8 0
57420 -185 12 0
57420 185 -8 -12 0
57420 -186 8 0
57420 -186 13 0
57420 186 -8 -13 0
57420 -187 8 0
57420 -187 14 0
57420 187 -8 -14 0
57420 -188 8 0
57420 -188 15 0
57420 188 -8 -15 0
57420 -189 8 0
57420 -189 16 0
57420 189 -8 -16 0
57420 -190 8 0
57420 -190 17 0
57420 190 -8 -17 0
57420 -191 8 0
57420 -191 18 0
57420 191 -8 -18 0
57420 -192 8 0
57420 -192 19 0
57420 192 -8 -19 0
57420 -193 8 0
57420 -193 20 0
57420 193 -8 -20 0
57420 -194 8 0
57420 -194 21 0
57420 194 -8 -21 0
57420 -195 8 0
57420 -195 22 0
57420 195 -8 -22 0
57420 -196 8 0
57420 -196 23 0
57420 196 -8 -23 0
57420 -197 8 0
57420 -197 24 0
57420 197 -8 -24 0
57420 -198 8 0
57420 -198 25 0
57420 198 -8 -25 0
57420 -199 8 0
57420 -199 26 0
57420 199 -8 -26 0
57420 -200 9 0
57420 -200 10 0
57420 200 -9 -10 0
57420 -201 9 0
57420 -201 11 0
57420 201 -9 -11 0
57420 -202 9 0
57420 -202 12 0
57420 202 -9 -12 0
57420 -203 9 0
57420 -203 13 0
57420 203 -9 -13 0
57420 -204 9 0
57420 -204 14 0
57420 204 -9 -14 0
57420 -205 9 0
57420 -205 15 0
57420 205 -9 -15 0
57420 -206 9 0
57420 -206 16 0
57420 206 -9 -16 0
57420 -207 9 0
57420 -207 17 0
57420 207 -9 -17 0
57420 -208 9 0
57420 -208 18 0
57420 208 -9 -18 0
57420 -209 9 0
57420 -209 19 0
57420 209 -9 -19 0
57420 -210 9 0
57420 -210 20 0
57420 210 -9 -20 0
57420 -211 9 0
57420 -211 21 0
57420 211 -9 -21 0
57420 -212 9 0
57420 -212 22 0
57420 212 -9 -22 0
57420 -213 9 0
57420 -213 23 0
57420 213 -9 -23 0
57420 -214 9 0
57420 -214 24 0
57420 214 -9 -24 0
57420 -215 9 0
57420 -215 25 0
57420 215 -9 -25 0
57420 -216 9 0
57420 -216 26 0
57420 216 -9 -26 0
57420 -217 10 0
57420 -217 11 0
57420 217 -10 -11 0
57420 -218 10 0
57420 -218 12 0
57420 218 -10 -12 0
57420 -219 10 0
57420 -219 13 0
57420 219 -10 -13 0
57420 -220 10 0
57420 -220 14 0
57420 220 -10 -14 0
57420 -221 10 0
57420 -221 15 0
57420 221 -10 -15 0
57420 -222 10 0
57420 -222 16 0
57420 222 -10 -16 0
57420 -223 10 0
57420 -223 17 0
57420 223 -10 -17 0
57420 -224 10 0
57420 -224 18 0
57420 224 -10 -18 0
57420 -225 10 0
57420 -225 19 0
57420 225 -10 -19 0
57420 -226 10 0
57420 -226 20 0
57420 226 -10 -20 0
57420 -227 10 0
57420 -227 21 0
57420 227 -10 -21 0
57420 -228 10 0
57420 -228 22 0
57420 228 -10 -22 0
57420 -229 10 0
57420 -229 23 0
57420 229 -10 -23 0
57420 -230 10 0
57420 -230 24 0
57420 230 -10 -24 0
57420 -231 10 0
57420 -231 25 0
57420 231 -10 -25 0
57420 -232 10 0
57420 -232 26 0
57420 232 -10 -26 0
57420 -233 11 0
57420 -233 12 0
57420 233 -11 -12 0
57420 -234 11 0
57420 -234 13 0
57420 234 -11 -13 0
57420 -235 11 0
57420 -235 14 0
57420 235 -11 -14 0
57420 -236 11 0
57420 -236 15 0
57420 236 -11 -15 0
57420 -237 11 0
57420 -237 16 0
57420 237 -11 -16 0
57420 -238 11 0
57420 -238 17 0
57420 238 -11 -17 0
57420 -239 11 0
57420 -239 18 0
57420 239 -11 -18 0
57420 -240 11 0
57420 -240 19 0
57420 240 -11 -19 0
57420 -241 11 0
57420 -241 20 0
57420 241 -11 -20 0
57420 -242 11 0
57420 -242 21 0
57420 242 -11 -21 0
57420 -243 11 0
57420 -243 22 0
57420 243 -11 -22 0
57420 -244 11 0
57420 -244 23 0
57420 244 -11 -23 0
57420 -245 11 0
57420 -245 24 0
57420 245 -11 -24 0
57420 -246 11 0
57420 -246 25 0
57420 246 -11 -25 0
57420 -247 11 0
57420 -247 26 0
57420 247 -11 -26 0
57420 -248 12 0
57420 -248 13 0
57420 248 -12 -13 0
57420 -249 12 0
57420 -249 14 0
57420 249 -12 -14 0
57420 -250 12 0
57420 -250 15 0
57420 250 -12 -15 0
57420 -251 12 0
57420 -251 16 0
57420 251 -12 -16 0
57420 -252 12 0
57420 -252 17 0
57420 252 -12 -17 0
57420 -253 12 0
57420 -253 18 0
57420 253 -12 -18 0
57420 -254 12 0
57420 -254 19 0
57420 254 -12 -19 0
57420 -255 12 0
57420 -255 20 0
57420 255 -12 -20 0
57420 -256 12 0
57420 -256 21 0
57420 256 -12 -21 0
57420 -257 12 0
57420 -257 22 0
57420 257 -12 -22 0
57420 -258 12 0
57420 -258 23 0
57420 258 -12 -23 0
57420 -259 12 0
57420 -259 24 0
57420 259 -12 -24 0
57420 -260 12 0
57420 -260 25 0
57420 260 -12 -25 0
57420 -261 12 0
57420 -261 26 0
57420 261 -12 -26 0
57420 -262 13 0
57420 -262 14 0
57420 262 -13 -14 0
57420 -263 13 0
57420 -263 15 0
57420 263 -13 -15 0
57420 -264 13 0
57420 -264 16 0
57420 264 -13 -16 0
57420 -265 13 0
57420 -265 17 0
57420 265 -13 -17 0
57420 -266 13 0
57420 -266 18 0
57420 266 -13 -18 0
57420 -267 13 0
57420 -267 19 0
57420 267 -13 -19 0
57420 -268 13 0
57420 -268 20 0
57420 268 -13 -20 0
57420 -269 13 0
57420 -269 21 0
57420 269 -13 -21 0
57420 -270 13 0
57420 -270 22 0
57420 270 -13 -22 0
57420 -271 13 0
57420 -271 23 0
57420 271 -13 -23 0
57420 -272 13 0
57420 -272 24 0
57420 272 -13 -24 0
57420 -273 13 0
57420 -273 25 0
57420 273 -13 -25 0
57420 -274 13 0
57420 -274 26 0
57420 274 -13 -26 0
57420 -275 14 0
57420 -275 15 0
57420 275 -14 -15 0
57420 -276 14 0
57420 -276 16 0
57420 276 -14 -16 0
57420 -277 14 0
57420 -277 17 0
57420 277 -14 -17 0
57420 -278 14 0
57420 -278 18 0
57420 278 -14 -18 0
57420 -279 14 0
57420 -279 19 0
57420 279 -14 -19 0
57420 -280 14 0
57420 -280 20 0
57420 280 -14 -20 0
57420 -281 14 0
57420 -281 21 0
57420 281 -14 -21 0
57420 -282 14 0
57420 -282 22 0
57420 282 -14 -22 0
57420 -283 14 0
57420 -283 23 0
57420 283 -14 -23 0
57420 -284 14 0
57420 -284 24 0
57420 284 -14 -24 0
57420 -285 14 0
57420 -285 25 0
57420 285 -14 -25 0
57420 -286 14 0
57420 -286 26 0
57420 286 -14 -26 0
57420 -287 15 0
57420 -287 16 0
57420 287 -15 -16 0
57420 -288 15 0
57420 -288 17 0
57420 288 -15 -17 0
57420 -289 15 0
57420 -289 18 0
57420 289 -15 -18 0
57420 -290 15 0
57420 -290 19 0
57420 290 -15 -19 0
57420 -291 15 0
57420 -291 20 0
57420 291 -15 -20 0
57420 -292 15 0
57420 -292 21 0
57420 292 -15 -21 0
57420 -293 15 0
57420 -293 22 0
57420 293 -15 -22 0
57420 -294 15 0
57420 -294 23 0
57420 294 -15 -23 0
57420 -295 15 0
57420 -295 24 0
57420 295 -15 -24 0
57420 -296 15 0
57420 -296 25 0
57420 296 -15 -25 0
57420 -297 15 0
57420 -297 26 0
57420 297 -15 -26 0
57420 -298 16 0
57420 -298 17 0
57420 298 -16 -17 0
57420 -299 16 0
57420 -299 18 0
57420 299 -16 -18 0
57420 -300 16 0
57420 -300 19 0
57420 300 -16 -19 0
57420 -301 16 0
57420 -301 20 0
57420 301 -16 -20 0
57420 -302 16 0
57420 -302 21 0
57420 302 -16 -21 0
57420 -303 16 0
57420 -303 22 0
57420 303 -16 -22 0
57420 -304 16 0
57420 -304 23 0
57420 304 -16 -23 0
57420 -305 16 0
57420 -305 24 0
57420 305 -16 -24 0
57420 -306 16 0
57420 -306 25 0
57420 306 -16 -25 0
57420 -307 16 0
57420 -307 26 0
57420 307 -16 -26 0
57420 -308 17 0
57420 -308 18 0
57420 308 -17 -18 0
57420 -309 17 0
57420 -309 19 0
57420 309 -17 -19 0
57420 -310 17 0
57420 -310 20 0
57420 310 -17 -20 0
57420 -311 17 0
57420 -311 21 0
57420 311 -17 -21 0
57420 -312 17 0
57420 -312 22 0
57420 312 -17 -22 0
57420 -313 17 0
57420 -313 23 0
57420 313 -17 -23 0
57420 -314 17 0
57420 -314 24 0
57420 314 -17 -24 0
57420 -315 17 0
57420 -315 25 0
57420 315 -17 -25 0
57420 -316 17 0
57420 -316 26 0
57420 316 -17 -26 0
57420 -317 18 0
57420 -317 19 0
57420 317 -18 -19 0
57420 -318 18 0
57420 -318 20 0
57420 318 -18 -20 0
57420 -319 18 0
57420 -319 21 0
57420 319 -18 -21 0
57420 -320 18 0
57420 -320 22 0
57420 320 -18 -22 0
57420 -321 18 0
57420 -321 23 0
57420 321 -18 -23 0
57420 -322 18 0
57420 -322 24 0
57420 322 -18 -24 0
57420 -323 18 0
57420 -323 25 0
57420 323 -18 -25 0
57420 -324 18 0
57420 -324 26 0
57420 324 -18 -26 0
57420 -325 19 0
57420 -325 20 0
57420 325 -19 -20 0
57420 -326 19 0
57420 -326 21 0
57420 326 -19 -21 0
57420 -327 19 0
57420 -327 22 0
57420 327 -19 -22 0
57420 -328 19 0
57420 -328 23 0
57420 328 -19 -23 0
57420 -329 19 0
57420 -329 24 0
57420 329 -19 -24 0
57420 -330 19 0
57420 -330 25 0
57420 330 -19 -25 0
57420 -331 19 0
57420 -331 26 0
57420 331 -19 -26 0
57420 -332 20 0
57420 -332 21 0
57420 332 -20 -21 0
57420 -333 20 0
57420 -333 22 0
57420 333 -20 -22 0
57420 -334 20 0
57420 -334 23 0
57420 334 -20 -23 0
57420 -335 20 0
57420 -335 24 0
57420 335 -20 -24 0
57420 -336 20 0
57420 -336 25 0
57420 336 -20 -25 0
57420 -337 20 0
57420 -337 26 0
57420 337 -20 -26 0
57420 -338 21 0
57420 -338 22 0
57420 338 -21 -22 0
57420 -339 21 0
57420 -339 23 0
57420 339 -21 -23 0
57420 -340 21 0
57420 -340 24 0
57420 340 -21 -24 0
57420 -341 21 0
57420 -341 25 0
57420 341 -21 -25 0
57420 -342 21 0
57420 -342 26 0
57420 342 -21 -26 0
57420 -343 22 0
57420 -343 23 0
57420 343 -22 -23 0
57420 -344 22 0
57420 -344 24 0
57420 344 -22 -24 0
57420 -345 22 0
57420 -345 25 0
57420 345 -22 -25 0
57420 -346 22 0
57420 -346 26 0
57420 346 -22 -26 0
57420 -347 23 0
57420 -347 24 0
57420 347 -23 -24 0
57420 -348 23 0
57420 -348 25 0
57420 348 -23 -25 0
57420 -349 23 0
57420 -349 26 0
57420 349 -23 -26 0
57420 -350 24 0
57420 -350 25 0
57420 350 -24 -25 0
57420 -351 24 0
57420 -351 26 0
57420 351 -24 -26 0
57420 -352 25 0
57420 -352 26 0
57420 352 -25 -26 0
44426 1 0
57410 -1 0
60554 28 0
57410 -28 0
45374 29 0
57410 -29 0
63920 30 0
57410 -30 0
54146 31 0
57410 -31 0
51700 32 0
57410 -32 0
63706 33 0
57410 -33 0
67026 34 0
57410 -34 0
68374 35 0
57410 -35 0
35026 36 0
57410 -36 0
50804 37 0
57410 -37 0
58066 38 0
57410 -38 0
46446 39 0
57410 -39 0
46274 40 0
57410 -40 0
59838 41 0
57410 -41 0
64882 42 0
57410 -42 0
53840 43 0
57410 -43 0
54008 44 0
57410 -44 0
58700 45 0
57410 -45 0
59954 46 0
57410 -46 0
53638 47 0
57410 -47 0
61328 48 0
57410 -48 0
59000 49 0
57410 -49 0
63022 50 0
57410 -50 0
56246 51 0
57410 -51 0
55910 52 0
57410 -52 0
29512 2 0
57410 -2 0
60838 53 0
57410 -53 0
71598 54 0
57410 -54 0
57944 55 0
57410 -55 0
63730 56 0
57410 -56 0
70300 57 0
57410 -57 0
49196 58 0
57410 -58 0
62158 59 0
57410 -59 0
50728 60 0
57410 -60 0
48764 61 0
57410 -61 0
62604 62 0
57410 -62 0
50590 63 0
57410 -63 0
50468 64 0
57410 -64 0
60898 65 0
57410 -65 0
56654 66 0
57410 -66 0
63506 67 0
57410 -67 0
54192 68 0
57410 -68 0
50128 69 0
57410 -69 0
58914 70 0
57410 -70 0
53054 71 0
57410 -71 0
60164 72 0
57410 -72 0
59806 73 0
57410 -73 0
59550 74 0
57410 -74 0
60722 75 0
57410 -75 0
57110 76 0
57410 -76 0
40298 3 0
57410 -3 0
47152 77 0
57410 -77 0
63844 78 0
57410 -78 0
62792 79 0
57410 -79 0
57514 80 0
57410 -80 0
57448 81 0
57410 -81 0
63186 82 0
57410 -82 0
53318 83 0
57410 -83 0
55686 84 0
57410 -84 0
59140 85 0
57410 -85 0
54986 86 0
57410 -86 0
54770 87 0
57410 -87 0
50062 88 0
57410 -88 0
65218 89 0
57410 -89 0
61698 90 0
57410 -90 0
56372 91 0
57410 -91 0
54390 92 0
57410 -92 0
63704 93 0
57410 -93 0
56250 94 0
57410 -94 0
56074 95 0
57410 -95 0
55836 96 0
57410 -96 0
58420 97 0
57410 -97 0
53690 98 0
57410 -98 0
56630 99 0
57410 -99 0
21852 4 0
57410 -4 0
56732 100 0
57410 -100 0
48826 101 0
57410 -101 0
57320 102 0
57410 -102 0
59212 103 0
57410 -103 0
44024 104 0
57410 -104 0
75160 105 0
57410 -105 0
62472 106 0
57410 -106 0
52176 107 0
57410 -107 0
64164 108 0
57410 -108 0
62696 109 0
57410 -109 0
48976 110 0
57410 -110 0
56726 111 0
57410 -111 0
60534 112 0
57410 -112 0
56772 113 0
57410 -113 0
71850 114 0
57410 -114 0
65230 115 0
57410 -115 0
60908 116 0
57410 -116 0
58876 117 0
57410 -117 0
53346 118 0
57410 -118 0
56688 119 0
57410 -119 0
54866 120 0
57410 -120 0
59990 121 0
57410 -121 0
38464 5 0
57410 -5 0
74510 122 0
57410 -122 0
61254 123 0
57410 -123 0
58566 124 0
57410 -124 0
49220 125 0
57410 -125 0
53838 126 0
57410 -126 0
52792 127 0
57410 -127 0
46644 128 0
57410 -128 0
64818 129 0
57410 -129 0
53154 130 0
57410 -130 0
69130 131 0
57410 -131 0
67728 132 0
57410 -132 0
48150 133 0
57410 -133 0
55118 134 0
57410 -134 0
61152 135 0
57410 -135 0
54182 136 0
57410 -136 0
55264 137 0
57410 -137 0
63014 138 0
57410 -138 0
57232 139 0
57410 -139 0
61164 140 0
57410 -140 0
58814 141 0
57410 -141 0
58730 142 0
57410 -142 0
38417 6 0
57410 -6 0
59404 143 0
57410 -143 0
61038 144 0
57410 -144 0
58222 145 0
57410 -145 0
60952 146 0
57410 -146 0
58850 147 0
57410 -147 0
60448 148 0
57410 -148 0
57122 149 0
57410 -149 0
60050 150 0
57410 -150 0
50576 151 0
57410 -151 0
51654 152 0
57410 -152 0
56726 153 0
57410 -153 0
58192 154 0
57410 -154 0
64008 155 0
57410 -155 0
62920 156 0
57410 -156 0
59064 157 0
57410 -157 0
55410 158 0
57410 -158 0
56044 159 0
57410 -159 0
55926 160 0
57410 -160 0
55370 161 0
57410 -161 0
57470 162 0
57410 -162 0
76503 7 0
57410 -7 0
48544 163 0
57410 -163 0
57534 164 0
57410 -164 0
54356 165 0
57410 -165 0
58466 166 0
57410 -166 0
63182 167 0
57410 -167 0
56810 168 0
57410 -168 0
63976 169 0
57410 -169 0
58066 170 0
57410 -170 0
60896 171 0
57410 -171 0
65300 172 0
57410 -172 0
56334 173 0
57410 -173 0
56028 174 0
57410 -174 0
52770 175 0
57410 -175 0
59440 176 0
57410 -176 0
54832 177 0
57410 -177 0
54598 178 0
57410 -178 0
55910 179 0
57410 -179 0
55010 180 0
57410 -180 0
57950 181 0
57410 -181 0
55426 8 0
57410 -8 0
67516 182 0
57410 -182 0
50698 183 0
57410 -183 0
39416 184 0
57410 -184 0
51386 185 0
57410 -185 0
60358 186 0
57410 -186 0
67250 187 0
57410 -187 0
59654 188 0
57410 -188 0
59954 189 0
57410 -189 0
64280 190 0
57410 -190 0
54552 191 0
57410 -191 0
58860 192 0
57410 -192 0
58816 193 0
57410 -193 0
57026 194 0
57410 -194 0
59340 195 0
57410 -195 0
58684 196 0
57410 -196 0
57616 197 0
57410 -197 0
59738 198 0
57410 -198 0
57890 199 0
57410 -199 0
26312 9 0
57410 -9 0
70890 200 0
57410 -200 0
64256 201 0
57410 -201 0
61866 202 0
57410 -202 0
58652 203 0
57410 -203 0
54288 204 0
57410 -204 0
56058 205 0
57410 -205 0
53272 206 0
57410 -206 0
57096 207 0
57410 -207 0
59176 208 0
57410 -208 0
62136 209 0
57410 -209 0
57270 210 0
57410 -210 0
58712 211 0
57410 -211 0
59208 212 0
57410 -212 0
53200 213 0
57410 -213 0
57502 214 0
57410 -214 0
56534 215 0
57410 -215 0
60230 216 0
57410 -216 0
75897 10 0
57410 -10 0
40616 217 0
57410 -217 0
62692 218 0
57410 -218 0
51100 219 0
57410 -219 0
49070 220 0
57410 -220 0
67576 221 0
57410 -221 0
68718 222 0
57410 -222 0
55002 223 0
57410 -223 0
50958 224 0
57410 -224 0
46278 225 0
57410 -225 0
55256 226 0
57410 -226 0
48196 227 0
57410 -227 0
56388 228 0
57410 -228 0
58176 229 0
57410 -229 0
61246 230 0
57410 -230 0
56522 231 0
57410 -231 0
55010 232 0
57410 -232 0
57079 11 0
57410 -11 0
50768 233 0
57410 -233 0
60504 234 0
57410 -234 0
52870 235 0
57410 -235 0
70050 236 0
57410 -236 0
66758 237 0
57410 -237 0
55308 238 0
57410 -238 0
55602 239 0
57410 -239 0
55972 240 0
57410 -240 0
57258 241 0
57410 -241 0
57098 242 0
57410 -242 0
55992 243 0
57410 -243 0
53144 244 0
57410 -244 0
56594 245 0
57410 -245 0
55334 246 0
57410 -246 0
59030 247 0
57410 -247 0
35431 12 0
57410 -12 0
71636 248 0
57410 -248 0
59340 249 0
57410 -249 0
59982 250 0
57410 -250 0
63552 251 0
57410 -251 0
56884 252 0
57410 -252 0
56816 253 0
57410 -253 0
67884 254 0
57410 -254 0
59312 255 0
57410 -255 0
61672 256 0
57410 -256 0
57976 257 0
57410 -257 0
56448 258 0
57410 -258 0
56376 259 0
57410 -259 0
56522 260 0
57410 -260 0
58370 261 0
57410 -261 0
50855 13 0
57410 -13 0
60254 262 0
57410 -262 0
51010 263 0
57410 -263 0
53714 264 0
57410 -264 0
55672 265 0
57410 -265 0
59958 266 0
57410 -266 0
52408 267 0
57410 -267 0
60270 268 0
57410 -268 0
54906 269 0
57410 -269 0
66116 270 0
57410 -270 0
65662 271 0
57410 -271 0
64542 272 0
57410 -272 0
62594 273 0
57410 -273 0
54950 274 0
57410 -274 0
46263 14 0
57410 -14 0
69122 275 0
57410 -275 0
60002 276 0
57410 -276 0
56698 277 0
57410 -277 0
52548 278 0
57410 -278 0
55682 279 0
57410 -279 0
58970 280 0
57410 -280 0
54326 281 0
57410 -281 0
54538 282 0
57410 -282 0
53248 283 0
57410 -283 0
56654 284 0
57410 -284 0
54182 285 0
57410 -285 0
58130 286 0
57410 -286 0
38180 15 0
57410 -15 0
53660 287 0
57410 -287 0
62538 288 0
57410 -288 0
61148 289 0
57410 -289 0
58246 290 0
57410 -290 0
60862 291 0
57410 -291 0
60176 292 0
57410 -292 0
58326 293 0
57410 -293 0
60710 294 0
57410 -294 0
58074 295 0
57410 -295 0
57866 296 0
57410 -296 0
55850 297 0
57410 -297 0
33433 16 0
57410 -16 0
61096 298 0
57410 -298 0
63184 299 0
57410 -299 0
61016 300 0
57410 -300 0
57356 301 0
57410 -301 0
64274 302 0
57410 -302 0
57240 303 0
57410 -303 0
57636 304 0
57410 -304 0
52424 305 0
57410 -305 0
60242 306 0
57410 -306 0
59570 307 0
57410 -307 0
42030 17 0
57410 -17 0
58568 308 0
57410 -308 0
58114 309 0
57410 -309 0
56540 310 0
57410 -310 0
51944 311 0
57410 -311 0
63188 312 0
57410 -312 0
61242 313 0
57410 -313 0
63750 314 0
57410 -314 0
59630 315 0
57410 -315 0
55850 316 0
57410 -316 0
61277 18 0
57410 -18 0
56800 317 0
57410 -317 0
59834 318 0
57410 -318 0
50894 319 0
57410 -319 0
57396 320 0
57410 -320 0
57760 321 0
57410 -321 0
59854 322 0
57410 -322 0
57110 323 0
57410 -323 0
56270 324 0
57410 -324 0
60471 19 0
57410 -19 0
52444 325 0
57410 -325 0
51672 326 0
57410 -326 0
51498 327 0
57410 -327 0
58734 328 0
57410 -328 0
56578 329 0
57410 -329 0
56990 330 0
57410 -330 0
54470 331 0
57410 -331 0
59102 20 0
57410 -20 0
58244 332 0
57410 -332 0
54848 333 0
57410 -333 0
54758 334 0
57410 -334 0
55954 335 0
57410 -335 0
56138 336 0
57410 -336 0
58070 337 0
57410 -337 0
58625 21 0
57410 -21 0
59848 338 0
57410 -338 0
60980 339 0
57410 -339 0
63852 340 0
57410 -340 0
58778 341 0
57410 -341 0
54410 342 0
57410 -342 0
55839 22 0
57410 -22 0
51980 343 0
57410 -343 0
49666 344 0
57410 -344 0
53018 345 0
57410 -345 0
57890 346 0
57410 -346 0
56047 23 0
57410 -23 0
52440 347 0
57410 -347 0
53102 348 0
57410 -348 0
59990 349 0
57410 -349 0
51088 24 0
57410 -24 0
54830 350 0
57410 -350 0
59450 351 0
57410 -351 0
58898 25 0
57410 -25 0
58130 352 0
57410 -352 0
58310 26 0
57410 -26 0
